c --- [ banner ] -------------------------------------------------------------
c 
c CaDiCaL Radically Simplified CDCL SAT Solver
c Copyright (c) 2016-2021 A. Biere, M. Fleury, N. Froleyks
c 
c Version 1.5.2 9c38a080b32c28d805e8e6ca21849856b0cda605
c g++ (Ubuntu 7.5.0-3ubuntu1~18.04) 7.5.0 -Wall -Wextra -O3 -DNDEBUG
c Wed Feb 16 23:15:36 EST 2022 Linux fac-vanhoeve01 5.4.0-99-generic x86_64
c 
c --- [ limit ] --------------------------------------------------------------
c 
c setting time limit to 600 seconds real time (due to '-t 600')
c setting conflict limit to 1000000000 conflicts (due to '1000000000')
c 
c --- [ parsing input ] ------------------------------------------------------
c 
c reading DIMACS file from 'ddfwcnfs/wap04a.col_40.cnf'
c opening file to read 'ddfwcnfs/wap04a.col_40.cnf'
c found 'p cnf 209240 11517191' header
c parsed 11517191 clauses in 6.43 seconds process time
c closing file 'ddfwcnfs/wap04a.col_40.cnf'
c after reading 199732645 bytes 190.5 MB
c 
c --- [ options ] ------------------------------------------------------------
c 
c all options are set to their default value
c 
c --- [ solving ] ------------------------------------------------------------
c 
c time measured in process time since initialization
c 
c  seconds   reductions  redundant   irredundant
c          MB    restarts       trail         variables
c           level   conflicts       glue            remaining
c 
c *  6.43 997  0 0   0    0    0  0% 0 11515591 207640 99%
c {  6.47 1000  0 0   0    0    0  0% 0 11515591 207640 99%
c -  8.30 1000 40 1   0  301  103  2% 36 11515591 207640 99%
c }  8.49 1000 40 1   0 1000  372  2% 36 11515591 207640 99%
c [  8.49 1000  0 1   0 1000  372  0% 0 11515591 207640 99%
c O  8.49 1000 55 1   0 1005  376  2% 37 11515591 207640 99%
c - 13.53 1265 43 2   1 2137  944  2% 39 11515591 207640 99%
c ] 13.63 1265 45 2   1 3002 1590  2% 40 11515591 207640 99%
c { 13.63 1265 40 2   1 3002 1590  2% 36 11515591 207640 99%
c F 13.63 1265 40 2   1 3009 1596  2% 36 11515591 207640 99%
c - 17.46 1265 45 3   9 4892 2265  3% 38 11515591 207640 99%
c # 26.05 1259 44 3  12 6010 3012  3% 38 11515591 207640 99%
c } 26.15 1259 50 3  12 7002 3813  3% 38 11515591 207640 99%
c [ 26.15 1259 45 3  12 7002 3813  2% 40 11515591 207640 99%
c - 29.91 1259 47 4  13 8565 3596  3% 41 11515591 207640 99%
c I 30.11 1259 53 4  14 10011 4698  3% 41 11515591 207640 99%
c s 33.91 1259 5294 4  16 11587 5555  9% 50 11515591 207640 99%
c e 53.07 1260 5294 4  16 11587 1703  9% 50 10703141 198403 95%
c - 59.74 1257 9355 5  16 13159 2425 15% 53 10703141 198403 95%
c ] 68.77 1257 14060 5  17 15002 3979 21% 66 10703141 198403 95%
c 
c  seconds    reductions   redundant    irredundant
c          MB     restarts        trail          variables
c            level    conflicts       glue             remaining
c 
c { 68.77 1257 50 5  17 15002 3979  3% 38 10703141 198403 95%
c B 68.82 1257 89 5  17 15012 3989  3% 38 10703141 198403 95%
c - 72.55 1258 229 6  22 18612 4685  3% 34 10703141 198403 95%
c W 76.29 1258 188 6  22 21015 6464  3% 34 10703141 198403 95%
c - 79.98 1257 150 7  26 24976 5923  3% 33 10703141 198403 95%
c F 80.27 1257 131 7  26 28018 8038  3% 32 10703141 198403 95%
c } 89.19 1257 116 7  28 31002 10191  3% 32 10703141 198403 95%
c [ 89.19 1257 14060 7  28 31002 10191 21% 66 10703141 198403 95%
c - 92.84 1258 12429 8  28 32247 7251 19% 62 10703141 198403 95%
c s 95.88 1258 10169 8  30 34602 8319 17% 59 10703141 198403 95%
c s 107.69 1258 10169 8  30 34602 8109 17% 59 10703141 198403 95%
c ^ 109.71 1258 10169 8  30 34602 8109 17% 59 10703141 198403 95%
c B 109.86 1258 9146 8  31 36021 9182 15% 58 10703141 198403 95%
c - 114.49 1259 10895 9  34 40426 8931 19% 66 10703141 198403 95%
c W 119.65 1259 9656 9  35 45022 12453 22% 80 10703141 198403 95%
c - 123.97 1260 9822 10  36 49515 9358 28% 80 10703141 198403 95%
c O 133.15 1260 8236 10  37 55025 13498 25% 82 10703141 198403 95%
c - 137.17 1259 7112 11  41 59512 9898 22% 76 10703141 198403 95%
c ] 137.54 1259 6408 11  43 63003 12224 20% 73 10703141 198403 95%
c { 137.54 1259 116 11  43 63003 12224  3% 32 10703141 198403 95%
c 
c  seconds      reductions     redundant    irredundant
c           MB       restarts         trail          variables
c              level     conflicts        glue             remaining
c 
c B 137.81 1259 111 11  43 66027 14803  3% 31 10703141 198403 95%
c s 138.82 1259 125 11 846 69124 15578  4% 32 10703141 198403 95%
c s 155.98 1259 125 11 846 69124 15378  4% 32 10703141 198403 95%
c ^ 158.05 1259 125 11 846 69124 15378  4% 32 10703141 198403 95%
c - 161.87 1258 121 12 1171 70421 8991  4% 32 10703141 198403 95%
c W 175.62 1258 101 12 2924 78028 11323  4% 33 10703141 198403 95%
c - 179.63 1258 94 13 3734 82238 6238  4% 34 10703141 198403 95%
c # 180.55 1258 84 13 4582 91030 9840  4% 35 10703141 198403 95%
c - 184.39 1258 80 14 4654 94964 7366  4% 35 10703141 198403 95%
c B 194.20 1258 71 14 4750 105031 13425  4% 35 10703141 198403 95%
c - 198.03 1258 70 15 4916 108597 9591  4% 35 10703141 198403 95%
c s 199.01 1258 66 15 5090 115154 12313  4% 36 10703141 198403 95%
c s 216.07 1258 66 15 5090 115154 10860  4% 36 10703141 198403 95%
c ^ 218.12 1258 66 15 5090 115154 10860  4% 36 10703141 198403 95%
c W 223.87 1258 64 15 5263 120033 13064  4% 36 10703141 198403 95%
c - 227.94 1258 63 16 5313 123139 8855  4% 36 10703141 198403 95%
c } 228.29 1258 61 16 5362 127003 10692  4% 36 10703141 198403 95%
c [ 228.29 1258 6408 16 5362 127003 10692 20% 73 10703141 198403 95%
c B 230.40 1258 8412 16 5367 136034 17713 23% 86 10703141 198403 95%
c - 233.93 1262 7903 17 5368 138591 12882 22% 84 10703141 198403 95%
c 
c  seconds       reductions       redundant    irredundant
c           MB        restarts           trail          variables
c              level       conflicts         glue             remaining
c 
c W 249.61 1262 5765 17 5371 153036 21850 17% 73 10703141 198403 95%
c - 253.94 1261 7422 18 5371 154952 14188 19% 80 10703141 198403 95%
c I 261.01 1261 15488 18 5374 171044 27848 26% 144 10703141 198403 95%
c - 264.80 1279 15673 19 5375 172222 18514 26% 142 10703141 198403 95%
c s 265.27 1279 15689 19 5375 172690 18203 26% 142 10703141 198403 95%
c w 273.46 1279 15689 19 5375 172690 18203 26% 142 10703141 198403 95%
c s 282.35 1279 15689 19 5375 172690 18017 26% 142 10703141 198403 95%
c ^ 284.43 1279 15689 19 5375 172690 18017 26% 142 10703141 198403 95%
c B 297.19 1279 12980 19 5385 190048 32320 25% 133 10703141 198403 95%
c - 300.73 1265 12984 20 5385 190400 19502 25% 133 10703141 198403 95%
c - 308.41 1266 10977 21 5393 209485 20001 25% 133 10703141 198403 95%
c W 315.46 1266 10904 21 5393 210049 20468 25% 133 10703141 198403 95%
c - 331.33 1266 8761 22 5401 229482 20906 23% 130 10703141 198403 95%
c O 331.53 1266 8606 22 5401 231050 22043 24% 129 10703141 198403 95%
c s 333.29 1266 7514 22 5402 241732 29486 21% 118 10703141 198403 95%
c w 341.63 1266 7514 22 5402 241732 29482 21% 118 10703141 198403 95%
c s 350.92 1266 7514 22 5402 241732 27979 21% 118 10703141 198403 95%
c ^ 353.08 1266 7514 22 5402 241732 27979 21% 118 10703141 198403 95%
c - 357.83 1261 6753 23 5402 250385 19307 19% 111 10703141 198403 95%
c B 358.26 1261 6538 23 5403 253054 21401 18% 108 10703141 198403 95%
c 
c  seconds       reductions       redundant     irredundant
c           MB        restarts           trail           variables
c              level       conflicts          glue             remaining
c 
c ] 358.52 1261 7587 23 5403 255004 22879 19% 108 10703141 198403 95%
c { 358.52 1261 61 23 5403 255004 22879  4% 36 10703141 198403 95%
c - 363.79 1260 62 24 9710 272199 15126  4% 41 10703141 198403 95%
c F 372.75 1260 62 24 10668 276056 16524  4% 42 10703141 198403 95%
c - 378.45 1260 57 25 10674 294921 18565  4% 41 10703141 198403 95%
c B 379.07 1260 56 25 10674 300061 22152  3% 41 10703141 198403 95%
c - 385.03 1263 97 26 12527 318551 23572  4% 43 10703141 198403 95%
c s 385.93 1263 104 26 12527 322284 25863  4% 42 10703141 198403 95%
c w 394.23 1263 104 26 12527 322284 25854  4% 42 10703141 198403 95%
c s 403.59 1263 104 26 12527 322284 25739  4% 42 10703141 198403 95%
c W 414.42 1263 109 26 12527 325063 28010  4% 42 10703141 198403 95%
c - 428.06 1262 98 27 12543 343090 24763  3% 42 10703141 198403 95%
c # 428.84 1262 92 27 12543 351066 29638  3% 41 10703141 198403 95%
c - 433.87 1262 85 28 12543 368537 26438  3% 40 10703141 198403 95%
c B 435.31 1262 82 28 12543 378068 34175  3% 39 10703141 198403 95%
c - 451.28 1262 80 29 12597 394893 28218  3% 39 10703141 198403 95%
c W 464.40 1262 76 29 12659 406069 35950  3% 39 10703141 198403 95%
c - 471.05 1262 70 30 12707 422159 25289  3% 39 10703141 198403 95%
c F 472.73 1262 67 30 12782 435072 32779  3% 39 10703141 198403 95%
c - 477.45 1262 67 31 12784 450333 26574  3% 38 10703141 198403 95%
c 
c  seconds     reductions        redundant    irredundant
c           MB       restarts           trail          variables
c             level       conflicts         glue             remaining
c 
c B 488.70 1262 63 31 12825 465074 36750  3% 38 10703141 198403 95%
c - 494.82 1262 68 32 12909 479416 28798  4% 38 10703141 198403 95%
c W 510.39 1262 65 32 13021 496075 41872  4% 38 10703141 198403 95%
c - 516.71 1263 63 33 13038 509409 31997  4% 38 10703141 198403 95%
c } 516.95 1263 62 33 13040 511004 33305  4% 38 10703141 198403 95%
c [ 516.95 1263 7587 33 13040 511004 33305 19% 108 10703141 198403 95%
c W 542.27 1263 6435 33 13040 528076 46378 17% 101 10703141 198403 95%
c - 546.78 1265 5589 34 13041 540312 31113 15% 96 10703141 198403 95%
c I 551.19 1265 5817 34 13054 561077 47088 16% 101 10703141 198403 95%
c - 557.31 1273 6352 35 13055 572123 33158 18% 108 10703141 198403 95%
c B 560.48 1273 5689 35 13069 595078 49952 18% 105 10703141 198403 95%
c - 576.28 1272 7097 36 13070 604842 33460 20% 110 10703141 198403 95%
c W 595.30 1272 5925 36 13077 630080 53165 22% 104 10703141 198403 95%
c - 600.68 1271 5537 37 13081 638472 35370 23% 102 10703141 198403 95%
c ] 600.68 1271 5537 37 13081 638472 35370 23% 102 10703141 198403 95%
c ? 600.68 1271 5537 37 13081 638472 35370 23% 102 10703141 198403 95%
c 
c --- [ result ] -------------------------------------------------------------
c 
c UNKNOWN
c 
c --- [ run-time profiling ] -------------------------------------------------
c 
c process time taken by individual solving procedures
c (percentage relative to process time for solving)
c 
c       350.56   58.99% search
c       243.69   41.01% simplify
c       139.80   23.53% stable
c       119.45   20.10% unstable
c        91.27   15.36% walk
c        63.76   10.73% ternary
c        55.27    9.30% elim
c        42.69    7.18% vivify
c        10.40    1.75% probe
c         9.87    1.66% subsume
c         6.43    1.08% parse
c         0.04    0.01% lucky
c   =================================
c       594.25   98.93% solve
c 
c last line shows process time for solving
c (percentage relative to total process time)
c 
c --- [ statistics ] ---------------------------------------------------------
c 
c chronological:            112129        17.56 %  of conflicts
c conflicts:                638472      1074.41    per second
c decisions:               3100478      5217.44    per second
c eliminated:                 9237         4.41 %  of all variables
c fixed:                      1600         0.76 %  of all variables
c learned:                  632280        99.03 %  per conflict
c learned_lits:           91672914       100.00 %  learned literals
c minimized:                     0         0.00 %  learned literals
c shrunken:               35601673        38.84 %  learned literals
c minishrunken:            2142850         2.34 %  learned literals
c propagations:          233605502         0.39 M  per second
c reduced:                  404572        63.37 %  per conflict
c rephased:                     35     18242.06    interval
c restarts:                  13081        48.81    interval
c stabilizing:                   5        46.59 %  of conflicts
c subsumed:                 188468         0.77 %  of all clauses
c strengthened:              19278         0.08 %  of all clauses
c vivified:                     28         0.00 %  of all clauses
c walked:                       11     58042.91    interval
c weakened:                 975519         2.70    average size
c 
c seconds are measured in process time for solving
c 
c --- [ resources ] ----------------------------------------------------------
c 
c total process time since initialization:       600.68    seconds
c total real time since initialization:          600.82    seconds
c maximum resident set size of process:         1638.26    MB
c 
c --- [ shutting down ] ------------------------------------------------------
c 
c exit 0
